g3 0 1 0	# problem d5n8R4R6d001d1
 8 9 1 0 4	# vars, constraints, objectives, ranges, eqns
 3 1	# nonlinear constraints, objectives
 0 0	# network constraints: nonlinear, linear
 8 8 8	# nonlinear vars in constraints, objectives, both
 0 0 0 1	# linear network variables; functions; arith, flags
 0 0 0 0 0	# discrete variables: binary, integer, nonlinear (b,c,o)
 72 8	# nonzeros in Jacobian, gradients
 0 0	# max name lengths: constraints, variables
 0 0 0 0 0	# common exprs: b,c,o,c1,o1
b
0 0.58 2.68
0 0.49 2.8
0 0.92 2.1
0 0.54 2.97
0 0.89 2.49
0 0.33 2.01
0 0.45 2.8
0 0.1 2.67
r
2 66.841
2 204.196
2 483.498
4 70.818
4 72.178
4 -4.134
4 68.772
2 88.04
2 23.116
C0
o16
o2
o2
o2
n0.65
v3
v6
v6
C1
o54
4
o2
o2
o2
n7.37
v3
v6
v6
o2
o2
o2
o2
n9.85
v0
v1
v3
v6
o2
o2
o2
o2
n7.1
v0
v3
v7
v7
o2
o2
o2
o2
n4.78
v5
v5
v7
v7
C2
o54
13
o2
o2
o2
n0.44
v3
v6
v6
o2
o2
o2
o2
n3.25
v0
v1
v3
v6
o2
o2
o2
o2
n4.19
v0
v3
v7
v7
o2
o2
o2
o2
n5.18
v5
v5
v7
v7
o2
o2
o2
o2
o2
n2.57
v0
v0
v1
v5
v7
o2
o2
o2
o2
o2
n8.01
v0
v0
v3
v4
v6
o2
o2
o2
o2
o2
n8.66
v0
v1
v7
v7
v7
o16
o2
o2
o2
o2
o2
n2.31
v0
v4
v4
v4
v4
o2
o2
o2
o2
o2
n2.51
v1
v1
v1
v2
v2
o2
o2
o2
o2
o2
n3.88
v1
v4
v4
v4
v6
o2
o2
o2
o2
o2
n5.3
v2
v2
v4
v6
v6
o2
o2
o2
o2
o2
n3.99
v2
v5
v6
v7
v7
o2
o2
o2
o2
o2
n3.81
v3
v3
v3
v6
v7
C3
n0
C4
n0
C5
n0
C6
n0
C7
n0
C8
n0
O0 0
o54
13
o2
o2
o2
n4.93
v3
v6
v6
o2
o2
o2
o2
n3.4
v0
v1
v3
v6
o2
o2
o2
o2
n8.16
v0
v3
v7
v7
o2
o2
o2
o2
n7.33
v5
v5
v7
v7
o16
o2
o2
o2
o2
o2
n8.52
v0
v0
v1
v5
v7
o2
o2
o2
o2
o2
n3.06
v0
v0
v3
v4
v6
o2
o2
o2
o2
o2
n1.23
v0
v1
v7
v7
v7
o2
o2
o2
o2
o2
n1.43
v0
v4
v4
v4
v4
o2
o2
o2
o2
o2
n6.6
v1
v1
v1
v2
v2
o2
o2
o2
o2
o2
n0.15
v1
v4
v4
v4
v6
o2
o2
o2
o2
o2
n9.46
v2
v2
v4
v6
v6
o2
o2
o2
o2
o2
n1.75
v2
v5
v6
v7
v7
o2
o2
o2
o2
o2
n3.18
v3
v3
v3
v6
v7
k7
9
18
27
36
45
54
63
J0 8
0 0.34
1 6.43
2 7.87
3 1.82
4 9.74
5 8.91
6 6.06
7 4.99
J1 8
0 7.32
1 4.48
2 -6.54
3 9.25
4 1.01
5 8.8
6 2.33
7 1.27
J2 8
0 7.56
1 4.59
2 3.27
3 9.3
4 8.38
5 3.34
6 5.93
7 1.18
J3 8
0 5.54
1 3.25
2 7.89
3 0.38
4 7.52
5 9.14
6 6.76
7 6.84
J4 8
0 9.79
1 8.68
2 1.74
3 2.66
4 0.64
5 8.43
6 8.79
7 6.8
J5 8
0 -4.88
1 3.6
2 -9.82
3 1.72
4 -5.45
5 7.16
6 2.2
7 5.03
J6 8
0 6.03
1 2.4
2 7.08
3 7.12
4 9.82
5 9.6
6 0.14
7 2.71
J7 8
0 1.79
1 9.46
2 4.41
3 8.9
4 6.86
5 8.37
6 9.62
7 7.41
J8 8
0 5.41
1 2.05
2 3.09
3 2.52
4 9.14
5 -9.21
6 4.64
7 -7.49
G0 8
0 6.66
1 3.86
2 0.87
3 1.34
4 0.93
5 8.63
6 0.78
7 4.32
